;  time = 459.0755078792572
(set-logic QF_FP)
(declare-const x0 (_ FloatingPoint 8 24))
(declare-const x1 (_ FloatingPoint 8 24))
(declare-const x2 (_ FloatingPoint 8 24))
(declare-const x3 (_ FloatingPoint 8 24))
(declare-const x4 (_ FloatingPoint 8 24))
(declare-const x5 (_ FloatingPoint 8 24))
(declare-const x6 (_ FloatingPoint 8 24))
(declare-const x7 (_ FloatingPoint 8 24))
(declare-const x8 (_ FloatingPoint 8 24))
(declare-const x9 (_ FloatingPoint 8 24))
(declare-const x10 (_ FloatingPoint 8 24))
(declare-const x11 (_ FloatingPoint 8 24))
(declare-const x12 (_ FloatingPoint 8 24))
(declare-const x13 (_ FloatingPoint 8 24))
(declare-const x14 (_ FloatingPoint 8 24))
(assert (fp.geq (fp.add RNE (fp.mul RNE (fp.sub RNE (fp.add RNE x2 (fp.abs (fp.add RNE (fp.neg (fp.neg (fp.mul RNE x2 x12))) (fp.mul RNE (fp.mul RNE (fp.add RNE x9 x5) x11) (fp.add RNE x13 (fp.abs x11)))))) (fp.add RNE (fp.add RNE x14 x10) (fp.mul RNE (fp.add RNE x11 x9) (fp.sub RNE (fp.mul RNE x12 (fp.add RNE x0 (fp.sub RNE x8 x4))) (fp.neg (fp.add RNE (fp.mul RNE x7 x10) (fp.add RNE x7 x3))))))) (fp.sub RNE x12 (fp.abs (fp.sub RNE (fp.mul RNE (fp.neg x14) (fp.add RNE (fp.add RNE x2 (fp.abs x4)) (fp.neg (fp.abs x2)))) (fp.abs (fp.mul RNE (fp.neg (fp.neg x0)) (fp.neg x13))))))) (fp.neg (fp.mul RNE (fp.neg (fp.sub RNE (fp.sub RNE (fp.mul RNE (fp.add RNE x1 (fp.mul RNE x12 x9)) (fp.add RNE x6 (fp.mul RNE x14 x13))) (fp.neg (fp.sub RNE x8 (fp.mul RNE x14 x14)))) (fp.abs (fp.neg (fp.sub RNE x14 (fp.sub RNE x11 x2)))))) x8))) (fp.add RNE (fp.mul RNE (fp.abs x13) (fp.add RNE (fp.mul RNE (fp.neg (fp.neg x9)) (fp.add RNE (fp.sub RNE (fp.add RNE (fp.sub RNE (fp.neg x3) (fp.mul RNE x14 x13)) x13) (fp.neg (fp.add RNE (fp.neg x7) x13))) x14)) (fp.mul RNE (fp.abs (fp.add RNE (fp.neg x14) x13)) (fp.mul RNE (fp.add RNE (fp.mul RNE (fp.mul RNE (fp.neg x14) x3) (fp.mul RNE x8 (fp.abs x13))) (fp.neg (fp.neg (fp.add RNE x7 x7)))) (fp.mul RNE x7 (fp.mul RNE (fp.add RNE (fp.sub RNE x14 x6) x3) x2)))))) (fp.add RNE (fp.add RNE x9 (fp.neg x14)) (fp.add RNE (fp.abs (fp.neg (fp.sub RNE (fp.neg x13) (fp.neg (fp.mul RNE (fp.abs x13) x2))))) (fp.abs (fp.neg (fp.sub RNE (fp.abs (fp.abs (fp.neg x11))) (fp.sub RNE x6 (fp.mul RNE x12 (fp.neg x10)))))))))))
(check-sat)